NAME: tsp_415
COMMENT: Random TSP instance
TYPE: TSP
DIMENSION: 50
EDGE_WEIGHT_TYPE: EUC_2D
NODE_COORD_SECTION
1 110 113
2 137 934
3 677 218
4 978 789
5 152 496
6 751 530
7 818 701
8 294 312
9 479 954
10 622 374
11 361 959
12 858 306
13 982 270
14 130 694
15 274 986
16 420 589
17 376 133
18 56 992
19 279 84
20 519 702
21 381 755
22 648 750
23 148 379
24 463 824
25 838 728
26 915 573
27 174 249
28 223 990
29 423 96
30 287 469
31 819 773
32 833 233
33 979 931
34 261 300
35 566 246
36 474 922
37 162 38
38 627 674
39 869 709
40 182 916
41 30 720
42 826 492
43 440 153
44 125 453
45 700 386
46 633 377
47 455 875
48 473 716
49 860 938
50 240 134
